Selected objective sense:  MINIMIZE
Selected objective  name:  OBJ
Selected RHS        name:  RHS1
Selected bound      name:  BND1
CPXPARAM_Preprocessing_Presolve                  0
CPXPARAM_LPMethod                                4
CPXPARAM_Threads                                 1
CPXPARAM_SolutionType                            2
CPXPARAM_TimeLimit                               3600
Tried aggregator 0 times.
DUAL formed by presolve
Reduced presolve eliminated 49 rows and 241 columns.
Reduced LP has 9775 rows, 2191 columns, and 842780 nonzeros.
Presolve time = 0.26 sec. (342.97 ticks)
Parallel mode: none, using 1 thread for barrier

***NOTE: Found 96 dense columns.

Number of nonzeros in lower triangle of A*A' = 21680
Using Approximate Minimum Degree ordering
Total time for automatic ordering = 0.00 sec. (2.51 ticks)
Summary statistics for Cholesky factor:
  Rows in Factor            = 9871
  Integer space required    = 191046
  Total non-zeros in factor = 915096
  Total FP ops to factor    = 87626404
 Itn      Primal Obj        Dual Obj  Prim Inf Upper Inf  Dual Inf Inf Ratio
   0  -2.4696325e+07   2.0623147e+08  2.02e+05  0.00e+00  9.79e+06  1.00e+00
   1  -4.1466107e+07   1.5601027e+08  1.66e+05  6.67e-13  8.27e+06  6.35e-04
   2  -3.7196700e+07   8.1720508e+07  4.03e+04  5.71e-12  5.07e+06  1.72e-04
   3  -2.1307295e+07   3.9230516e+06  1.39e+04  7.61e-12  9.13e+05  2.28e-03
   4  -2.4315832e+06   7.2696099e+05  1.39e+03  7.75e-12  2.39e+05  1.00e-02
   5  -1.7708232e+06   6.3727187e+05  1.08e+03  6.89e-12  1.34e+05  1.13e-02
   6  -1.3380673e+06   5.6159264e+05  8.60e+02  8.83e-12  9.70e+04  1.04e-02
   7  -1.2382170e+06   4.8342313e+05  7.85e+02  1.13e-11  8.72e+04  1.08e-02
   8  -8.1315522e+05   2.4887406e+05  4.79e+02  5.40e-12  5.58e+04  1.10e-02
   9  -4.4923328e+05   7.4014173e+04  2.49e+02  8.66e-12  2.40e+04  2.64e-02
  10  -7.6542063e+04   1.6723290e+04  4.41e+01  3.01e-12  4.48e+03  3.88e-01
  11  -1.4562632e+04   1.5570313e+04  1.41e+01  3.41e-12  2.11e+03  7.95e-01
  12   6.2187426e+03   1.4993223e+04  3.96e+00  1.08e-11  1.14e+03  1.08e+00
  13   1.1870262e+04   1.4484724e+04  1.23e+00  3.71e-12  1.23e+02  9.80e+00
  14   1.3501728e+04   1.4431706e+04  4.31e-01  5.94e-12  6.13e+01  1.81e+01
  15   1.3931966e+04   1.4393703e+04  2.11e-01  2.40e-12  3.47e+01  2.71e+01
  16   1.4155711e+04   1.4359035e+04  8.26e-02  7.36e-12  2.19e+01  4.15e+01
  17   1.4216504e+04   1.4340334e+04  3.58e-02  8.16e-12  1.76e+01  5.21e+01
  18   1.4233760e+04   1.4328649e+04  2.39e-02  4.80e-12  1.48e+01  6.36e+01
  19   1.4245307e+04   1.4316316e+04  1.63e-02  3.84e-12  1.16e+01  8.34e+01
  20   1.4254361e+04   1.4308327e+04  1.13e-02  3.68e-12  9.41e+00  1.07e+02
  21   1.4261023e+04   1.4302514e+04  7.66e-03  5.60e-12  7.76e+00  1.33e+02
  22   1.4265272e+04   1.4296799e+04  5.50e-03  6.87e-12  6.08e+00  1.77e+02
  23   1.4267694e+04   1.4296184e+04  4.19e-03  7.19e-12  5.91e+00  1.83e+02
  24   1.4270652e+04   1.4293002e+04  2.66e-03  3.52e-12  4.99e+00  2.23e+02
  25   1.4271985e+04   1.4292170e+04  1.91e-03  4.48e-12  4.75e+00  2.36e+02
  26   1.4273035e+04   1.4290665e+04  1.38e-03  6.23e-12  4.31e+00  2.64e+02
  27   1.4274116e+04   1.4288343e+04  8.60e-04  2.88e-12  3.64e+00  3.24e+02
  28   1.4274596e+04   1.4286986e+04  6.76e-04  6.87e-12  3.22e+00  3.72e+02
  29   1.4275228e+04   1.4284749e+04  4.29e-04  3.36e-12  2.55e+00  4.93e+02
  30   1.4275628e+04   1.4282775e+04  2.98e-04  5.12e-12  1.94e+00  6.85e+02
  31   1.4276231e+04   1.4281242e+04  1.37e-04  3.36e-12  1.44e+00  9.72e+02
  32   1.4276438e+04   1.4280069e+04  8.50e-05  3.20e-12  1.06e+00  1.40e+03
  33   1.4276695e+04   1.4279401e+04  4.06e-05  6.23e-12  8.38e-01  1.86e+03
  34   1.4276834e+04   1.4278565e+04  2.29e-05  6.23e-12  5.45e-01  2.96e+03
  35   1.4276906e+04   1.4277518e+04  1.34e-05  8.79e-12  1.79e-01  1.31e+04
  36   1.4276976e+04   1.4277358e+04  8.24e-06  5.59e-12  1.12e-01  2.16e+04
  37   1.4277042e+04   1.4277184e+04  3.14e-06  7.99e-12  4.14e-02  6.34e+04
  38   1.4277065e+04   1.4277141e+04  1.29e-06  4.32e-12  2.40e-02  1.10e+05
  39   1.4277074e+04   1.4277112e+04  1.99e-05  1.62e-11  1.29e-02  2.10e+05
  40   1.4277077e+04   1.4277088e+04  1.01e-04  4.30e-12  3.57e-03  7.91e+05
  41   1.4277078e+04   1.4277082e+04  5.83e-04  2.86e-12  1.08e-03  2.64e+06
  42   1.4277079e+04   1.4277080e+04  1.07e-03  2.86e-12  1.95e-04  1.35e+07
  43   1.4277080e+04   1.4277080e+04  1.25e-03  3.97e-12  8.03e-05  2.86e+07
  44   1.4277080e+04   1.4277080e+04  1.32e-03  3.82e-12  2.51e-05  8.67e+07
Barrier time = 2.53 sec. (3481.39 ticks)

Total time on 1 threads = 2.53 sec. (3481.39 ticks)
Solve time: 2.529432814
Barrier iterations: 44
